29
 1 58 2
 2 448 16
 3 297 11
 4 338 13
 5 450 18
 6 168 7
 7 23 1
 8 176 8
 9 210 10
 10 380 19
 11 323 17
 12 198 11
 13 187 11
 14 288 18
 15 105 7
 16 126 9
 17 104 8
 18 156 13
 19 176 16
 20 110 11
 21 54 6
 22 32 4
 23 84 12
 24 78 13
 25 25 5
 26 28 7
 27 27 9
 28 10 5
 29 1 1
145